(set-info :Origin "This instance was generated by: BanditFuzz-- an RL fuzzer for SMT solvers" )
(set-info :Author "Joe Scott, Fed Mora, Vijay Ganesh" )
(set-info :Contact "Joe Scott, joseph.scott@uwaterloo.ca")
(set-logic QF_BV)
(declare-const bool_0 Bool)
(declare-const bool_1 Bool)
(declare-const bool_2 Bool)
(declare-const bool_3 Bool)
(declare-const bool_4 Bool)
(declare-const bv_0 (_ BitVec 32))
(declare-const bv_1 (_ BitVec 32))
(declare-const bv_2 (_ BitVec 32))
(declare-const bv_3 (_ BitVec 32))
(declare-const bv_4 (_ BitVec 32))
(assert (bvsle (bvsub (bvsub bv_1 bv_1) (bvor bv_2 #x90a81768 )) (bvxnor (bvudiv #x53dad046  #x30fe315e ) (bvurem #x788b0225  #x81637558 ))))
(assert (bvsgt (bvashr (bvmul #xda1a48d0  bv_0) (bvnand bv_0 #xc7cfcc4a )) (bvxnor (bvsrem bv_0 #x16bcdd90 ) (bvor #x7af1787a  #xae4f7144 ))))
(assert (bvugt (bvor (bvsmod #x5974aac6  #x4ae8f671 ) (bvor #xef0eb059  bv_2)) (bvsrem (bvashr bv_4 #xdb538654 ) (bvnand #xf518fbe1  bv_0))))
(assert (bvugt (bvmul (bvxor bv_1 bv_1) (bvshl bv_0 bv_2)) (bvadd (bvudiv bv_1 bv_2) (bvand bv_4 bv_3))))
(assert (bvsgt (bvudiv (bvsdiv bv_2 #x21f233ce ) (bvurem bv_1 #x5fac2149 )) (bvnor (bvudiv bv_1 #x9537df9f ) (bvshl bv_4 bv_3))))
(check-sat)
(exit)
